500
1000
627
626
625
624
624
621
619
618
618
617
616
609
608
608
608
606
606
605
604
604
604
602
601
600
598
595
594
592
591
590
589
589
586
586
584
583
583
581
581
580
579
577
576
575
575
574
574
572
570
570
569
567
567
564
563
563
563
560
558
554
553
552
550
550
549
548
548
548
546
545
543
543
542
542
540
539
537
536
536
534
533
530
526
523
522
521
520
520
519
519
517
517
516
516
511
510
510
506
503
503
502
502
499
498
497
497
496
495
491
491
491
490
489
489
486
482
481
481
481
478
477
477
477
476
475
475
474
472
471
471
469
467
467
467
466
463
462
462
461
461
458
457
454
453
452
450
449
449
449
446
446
445
443
441
441
437
435
434
434
432
432
430
429
426
425
425
424
421
421
418
418
417
415
411
411
411
408
407
406
405
404
404
403
403
403
402
400
399
396
395
395
395
392
391
391
391
390
390
388
388
387
385
384
381
381
381
380
380
380
380
377
377
375
374
373
372
371
371
369
368
366
366
366
365
364
364
359
355
351
351
350
348
347
347
346
344
342
340
339
338
337
336
335
332
331
331
331
329
329
327
327
326
325
324
324
324
320
320
320
319
318
318
317
316
315
314
314
314
314
312
306
304
303
301
300
300
299
297
297
296
292
291
288
288
288
284
283
282
277
275
272
272
271
270
268
263
261
261
261
261
260
256
256
256
254
254
250
249
249
246
246
243
242
239
237
231
231
230
230
230
229
225
224
223
223
222
222
216
216
215
214
214
213
212
211
210
209
209
208
206
203
201
199
199
199
198
196
196
195
195
192
192
190
188
185
183
183
181
181
180
179
178
176
175
173
170
170
170
168
167
167
161
159
156
156
156
156
155
154
154
153
152
151
150
149
148
144
143
142
141
140
140
139
138
137
136
136
130
129
129
128
124
122
121
121
121
115
115
114
114
112
112
111
111
108
108
108
107
107
106
106
106
106
106
102
101
101
99
98
98
98
98
97
97
95
94
90
89
89
88
86
86
86
85
84
81
81
80
80
79
79
79
77
77
76
75
75
74
74
74
74
73
72
68
67
66
65
65
64
63
62
62
61
61
60
60
60
59
58
58
55
55
54
53
53
50
48
46
45
45
45
44
43
43
40
39
38
37
37
37
